(set-info :source |printed by MathSAT|)
(declare-fun A_4 () Int)
(declare-fun .x.13 () Int)
(declare-fun .y.6 () Int)
(declare-fun .y.9 () Int)
(declare-fun B_3 () (Array Int Int))
(declare-fun .x.14 () (Array Int Int))
(declare-fun C_3 () Int)
(declare-fun K_3 () Int)
(declare-fun D_3 () Int)
(declare-fun .x.15 () Int)
(declare-fun E_3 () (Array Int Int))
(declare-fun .y.10 () (Array Int Int))
(declare-fun F_3 () Int)
(declare-fun .y.11 () Int)
(declare-fun .loc.7 () Bool)
(declare-fun .loc.12 () Bool)
(declare-fun .loc.8 () Bool)
(declare-fun .loc.13 () Bool)
(declare-fun M_2 () Int)
(declare-fun I_4 () Int)
(declare-fun O_1 () Int)
(declare-fun I_5 () Int)
(declare-fun M_4 () Int)
(define-fun .def_8 () Int (! A_4 :next |.x.13|))
(define-fun .def_10 () Int (! .y.6 :next |.y.9|))
(define-fun .def_12 () (Array Int Int) (! B_3 :next |.x.14|))
(define-fun .def_14 () Int (! C_3 :next |K_3|))
(define-fun .def_16 () Int (! D_3 :next |.x.15|))
(define-fun .def_18 () (Array Int Int) (! E_3 :next |.y.10|))
(define-fun .def_20 () Int (! F_3 :next |.y.11|))
(define-fun .def_22 () Bool (! .loc.7 :next |.loc.12|))
(define-fun .def_24 () Bool (! .loc.8 :next |.loc.13|))
(define-fun .def_36 () Int (! M_2 :next |.xtv.1|))
(define-fun .def_88 () Int (! I_4 :next |.xtv.2|))
(define-fun .def_112 () Int (! O_1 :next |.xtv.3|))
(define-fun .def_186 () Int (! I_5 :next |.xpv.1|))
(define-fun .def_191 () Int (! M_4 :next |.xpv.2|))
(define-fun .def_69 () Bool (not .def_22))
(define-fun .def_29 () Bool (not .def_24))
(define-fun .def_185 () Bool (! (and .def_29 .def_69) :init true))
(define-fun .def_178 () Bool (and .loc.12 .def_24))
(define-fun .def_173 () Bool (= .x.15 .def_20))
(define-fun .def_171 () Bool (= .x.14 .def_18))
(define-fun .def_169 () Bool (= .x.13 .def_16))
(define-fun .def_84 () Bool (<= .def_20 .def_14))
(define-fun .def_170 () Bool (and .def_84 .def_169))
(define-fun .def_172 () Bool (and .def_170 .def_171))
(define-fun .def_174 () Bool (and .def_172 .def_173))
(define-fun .def_142 () Bool (= K_3 0))
(define-fun .def_175 () Bool (and .def_142 .def_174))
(define-fun .def_176 () Bool (and .def_69 .def_175))
(define-fun .def_160 () Bool (<= .def_16 .def_14))
(define-fun .def_161 () Bool (not .def_160))
(define-fun .def_125 () Int (select .def_12 .def_88))
(define-fun .def_126 () Int (* (- 1) .def_125))
(define-fun .def_156 () Int (+ .def_14 .def_126))
(define-fun .def_157 () Bool (= .def_156 (- 42)))
(define-fun .def_158 () Bool (and .def_22 .def_157))
(define-fun .def_89 () Int (* (- 1) .def_88))
(define-fun .def_90 () Int (+ .def_14 .def_89))
(define-fun .def_91 () Int (+ .def_8 .def_90))
(define-fun .def_92 () Bool (= .def_91 0))
(define-fun .def_159 () Bool (and .def_92 .def_158))
(define-fun .def_162 () Bool (and .def_159 .def_161))
(define-fun .def_94 () Bool (<= .def_8 0))
(define-fun .def_95 () Bool (not .def_94))
(define-fun .def_163 () Bool (and .def_95 .def_162))
(define-fun .def_97 () Int (* (- 1) K_3))
(define-fun .def_98 () Int (+ .def_14 .def_97))
(define-fun .def_99 () Bool (= .def_98 (- 1)))
(define-fun .def_164 () Bool (and .def_99 .def_163))
(define-fun .def_101 () Bool (<= .def_88 0))
(define-fun .def_102 () Bool (not .def_101))
(define-fun .def_103 () Bool (or .def_94 .def_102))
(define-fun .def_165 () Bool (and .def_103 .def_164))
(define-fun .def_105 () Bool (= .def_8 .x.13))
(define-fun .def_166 () Bool (and .def_105 .def_165))
(define-fun .def_107 () Bool (= .def_12 .x.14))
(define-fun .def_167 () Bool (and .def_107 .def_166))
(define-fun .def_27 () Bool (= .def_16 .x.15))
(define-fun .def_168 () Bool (and .def_27 .def_167))
(define-fun .def_177 () Bool (or .def_168 .def_176))
(define-fun .def_179 () Bool (and .def_177 .def_178))
(define-fun .def_153 () Bool (= .def_16 .y.11))
(define-fun .def_151 () Bool (= .def_14 .x.15))
(define-fun .def_149 () Bool (= .x.13 .def_10))
(define-fun .def_143 () Bool (and .def_22 .def_142))
(define-fun .def_144 () Bool (and .def_107 .def_143))
(define-fun .def_110 () Bool (not .loc.12))
(define-fun .def_145 () Bool (and .def_110 .def_144))
(define-fun .def_146 () Bool (and .def_29 .def_145))
(define-fun .def_31 () Bool (= .def_18 .y.10))
(define-fun .def_147 () Bool (and .def_31 .def_146))
(define-fun .def_58 () Bool (<= .def_16 .def_8))
(define-fun .def_148 () Bool (and .def_58 .def_147))
(define-fun .def_150 () Bool (and .def_148 .def_149))
(define-fun .def_152 () Bool (and .def_150 .def_151))
(define-fun .def_154 () Bool (and .def_152 .def_153))
(define-fun .def_180 () Bool (or .def_154 .def_179))
(define-fun .def_140 () Bool (= .def_20 .y.11))
(define-fun .def_136 () Bool (<= .def_112 0))
(define-fun .def_137 () Bool (not .def_136))
(define-fun .def_133 () Bool (<= .def_16 0))
(define-fun .def_138 () Bool (or .def_133 .def_137))
(define-fun .def_134 () Bool (not .def_133))
(define-fun .def_50 () Int (* (- 1) .def_36))
(define-fun .def_129 () Int (+ .def_50 .def_125))
(define-fun .def_130 () Int (+ .def_14 .def_129))
(define-fun .def_131 () Bool (= .def_130 0))
(define-fun .def_120 () Int (* (- 1) .def_112))
(define-fun .def_121 () Int (+ .def_16 .def_120))
(define-fun .def_122 () Int (+ .def_14 .def_121))
(define-fun .def_123 () Bool (= .def_122 0))
(define-fun .def_113 () (Array Int Int) (store .def_18 .def_112 .def_36))
(define-fun .def_114 () Bool (= .y.10 .def_113))
(define-fun .def_85 () Bool (not .def_84))
(define-fun .def_86 () Bool (and .def_24 .def_85))
(define-fun .def_87 () Bool (and .def_69 .def_86))
(define-fun .def_93 () Bool (and .def_87 .def_92))
(define-fun .def_96 () Bool (and .def_93 .def_95))
(define-fun .def_100 () Bool (and .def_96 .def_99))
(define-fun .def_104 () Bool (and .def_100 .def_103))
(define-fun .def_106 () Bool (and .def_104 .def_105))
(define-fun .def_108 () Bool (and .def_106 .def_107))
(define-fun .def_109 () Bool (and .def_27 .def_108))
(define-fun .def_111 () Bool (and .def_109 .def_110))
(define-fun .def_115 () Bool (and .def_111 .def_114))
(define-fun .def_124 () Bool (and .def_115 .def_123))
(define-fun .def_132 () Bool (and .def_124 .def_131))
(define-fun .def_135 () Bool (and .def_132 .def_134))
(define-fun .def_139 () Bool (and .def_135 .def_138))
(define-fun .def_141 () Bool (and .def_139 .def_140))
(define-fun .def_181 () Bool (or .def_141 .def_180))
(define-fun .def_182 () Bool (and .loc.13 .def_181))
(define-fun .def_81 () Bool (<= K_3 0))
(define-fun .def_82 () Bool (not .def_81))
(define-fun .def_78 () Bool (<= .y.9 0))
(define-fun .def_79 () Bool (not .def_78))
(define-fun .def_75 () Bool (<= .x.15 0))
(define-fun .def_76 () Bool (not .def_75))
(define-fun .def_73 () Bool (= .x.13 0))
(define-fun .def_70 () Bool (and .loc.12 .def_69))
(define-fun .def_71 () Bool (and .def_29 .def_70))
(define-fun .def_33 () Bool (not .loc.13))
(define-fun .def_72 () Bool (and .def_33 .def_71))
(define-fun .def_74 () Bool (and .def_72 .def_73))
(define-fun .def_77 () Bool (and .def_74 .def_76))
(define-fun .def_80 () Bool (and .def_77 .def_79))
(define-fun .def_83 () Bool (and .def_80 .def_82))
(define-fun .def_183 () Bool (or .def_83 .def_182))
(define-fun .def_67 () Bool (= .def_14 K_3))
(define-fun .def_65 () Bool (= .def_10 .y.9))
(define-fun .def_61 () Bool (<= .def_36 0))
(define-fun .def_62 () Bool (not .def_61))
(define-fun .def_55 () Bool (<= .def_10 0))
(define-fun .def_63 () Bool (or .def_55 .def_62))
(define-fun .def_59 () Bool (not .def_58))
(define-fun .def_56 () Bool (not .def_55))
(define-fun .def_51 () Int (+ .def_10 .def_50))
(define-fun .def_52 () Int (+ .def_8 .def_51))
(define-fun .def_53 () Bool (= .def_52 0))
(define-fun .def_41 () Int (* (- 1) .x.13))
(define-fun .def_42 () Int (+ .def_8 .def_41))
(define-fun .def_43 () Bool (= .def_42 (- 1)))
(define-fun .def_37 () (Array Int Int) (store .def_12 .def_36 42))
(define-fun .def_38 () Bool (= .x.14 .def_37))
(define-fun .def_26 () Bool (and .def_22 .loc.12))
(define-fun .def_28 () Bool (and .def_26 .def_27))
(define-fun .def_30 () Bool (and .def_28 .def_29))
(define-fun .def_32 () Bool (and .def_30 .def_31))
(define-fun .def_34 () Bool (and .def_32 .def_33))
(define-fun .def_39 () Bool (and .def_34 .def_38))
(define-fun .def_44 () Bool (and .def_39 .def_43))
(define-fun .def_54 () Bool (and .def_44 .def_53))
(define-fun .def_57 () Bool (and .def_54 .def_56))
(define-fun .def_60 () Bool (and .def_57 .def_59))
(define-fun .def_64 () Bool (and .def_60 .def_63))
(define-fun .def_66 () Bool (and .def_64 .def_65))
(define-fun .def_68 () Bool (and .def_66 .def_67))
(define-fun .def_184 () Bool (! (or .def_68 .def_183) :trans true))
(define-fun .def_206 () Bool (and .def_22 .def_24))
(define-fun .def_200 () Int (* (- 1) .def_191))
(define-fun .def_201 () Int (+ .def_14 .def_200))
(define-fun .def_202 () Bool (= .def_201 (- 42)))
(define-fun .def_198 () Bool (and .def_95 .def_161))
(define-fun .def_194 () Int (* (- 1) .def_186))
(define-fun .def_195 () Int (+ .def_14 .def_194))
(define-fun .def_196 () Int (+ .def_8 .def_195))
(define-fun .def_197 () Bool (= .def_196 0))
(define-fun .def_199 () Bool (and .def_197 .def_198))
(define-fun .def_203 () Bool (and .def_199 .def_202))
(define-fun .def_190 () Int (select .def_12 .def_186))
(define-fun .def_192 () Bool (= .def_190 .def_191))
(define-fun .def_193 () Bool (not .def_192))
(define-fun .def_204 () Bool (and .def_193 .def_203))
(define-fun .def_187 () Bool (<= .def_186 0))
(define-fun .def_188 () Bool (not .def_187))
(define-fun .def_189 () Bool (or .def_94 .def_188))
(define-fun .def_205 () Bool (and .def_189 .def_204))
(define-fun .def_207 () Bool (and .def_205 .def_206))
(define-fun .def_210 () Bool (! (not .def_207) :invar-property 0))
(assert true)
